
Gurobi 7.0.1 (win64) logging started 04/03/17 17:11:52

Changed value of parameter LogFile to outputlogs\log_LPIP_prov_code_7_8_9_10_1491253912.log
   Prev: gurobi.log  Default: 
Optimize a model with 9684 rows, 421368 columns and 843170 nonzeros
Variable types: 0 continuous, 421368 integer (421368 binary)
Coefficient statistics:
  Matrix range     [1e+00, 4e+03]
  Objective range  [6e+00, 2e+07]
  Bounds range     [1e+00, 1e+00]
  RHS range        [1e+00, 4e+01]
Presolve removed 143 rows and 0 columns
Presolve time: 1.22s
Presolved: 9541 rows, 421368 columns, 843027 nonzeros

MIP start did not produce a new incumbent solution
MIP start violates constraint R4408 by 197.000000000

Variable types: 0 continuous, 421368 integer (421368 binary)

Root simplex log...

Iteration    Objective       Primal Inf.    Dual Inf.      Time
       0    0.0000000e+00   8.814000e+03   0.000000e+00    192s
    8957    7.2571122e+07   0.000000e+00   0.000000e+00    192s

Root relaxation: objective 7.257112e+07, 8957 iterations, 0.16 seconds

    Nodes    |    Current Node    |     Objective Bounds      |     Work
 Expl Unexpl |  Obj  Depth IntInf | Incumbent    BestBd   Gap | It/Node Time

     0     0 7.2571e+07    0   34          - 7.2571e+07      -     -  192s
Another try with MIP start
     0     0 7.4258e+07    0  577          - 7.4258e+07      -     -  234s
     0     0 7.4383e+07    0  562          - 7.4383e+07      -     -  236s
     0     0 7.5663e+07    0  805          - 7.5663e+07      -     -  237s
     0     0 7.5872e+07    0 1507          - 7.5872e+07      -     -  239s
     0     0 7.5941e+07    0 1552          - 7.5941e+07      -     -  242s
     0     0 7.5941e+07    0 1559          - 7.5941e+07      -     -  243s
     0     0 7.5982e+07    0   91          - 7.5982e+07      -     -  244s
     0     0 7.5983e+07    0   59          - 7.5983e+07      -     -  245s
     0     0 7.6003e+07    0   82          - 7.6003e+07      -     -  246s
     0     0 7.6003e+07    0   82          - 7.6003e+07      -     -  285s
     0     0 7.6339e+07    0 1156          - 7.6339e+07      -     -  286s
     0     0 7.6460e+07    0 1277          - 7.6460e+07      -     -  287s
     0     0 7.6460e+07    0 1279          - 7.6460e+07      -     -  288s
     0     0 7.6472e+07    0  104          - 7.6472e+07      -     -  289s
     0     0 7.6473e+07    0   98          - 7.6473e+07      -     -  289s
     0     0 7.6475e+07    0   86          - 7.6475e+07      -     -  290s
     0     0 7.6475e+07    0   86          - 7.6475e+07      -     -  328s
     0     0 7.6657e+07    0  957          - 7.6657e+07      -     -  328s
     0     0 7.6720e+07    0  177          - 7.6720e+07      -     -  329s
     0     0 7.6720e+07    0  165          - 7.6720e+07      -     -  345s
     0     0 7.6720e+07    0  165          - 7.6720e+07      -     -  386s
     0     0 7.6720e+07    0  165          - 7.6720e+07      -     -  427s
     0     0 7.6720e+07    0  165          - 7.6720e+07      -     -  467s
     0     0 7.6720e+07    0  165          - 7.6720e+07      -     -  507s
     0     0 7.6720e+07    0  165          - 7.6720e+07      -     -  548s
     0     2 7.6721e+07    0  181          - 7.6721e+07      -     -  552s
     1     4 7.6722e+07    1  146          - 7.6721e+07      -  2139  588s
     3     6 7.6722e+07    2  194          - 7.6722e+07      -   822  599s
     5     8 7.6726e+07    2 1323          - 7.6723e+07      -   735  641s
     9     9 7.6735e+07    4  127          - 7.6723e+07      -   674  664s
    11    12 7.6736e+07    5  158          - 7.6723e+07      -   612  682s
    13    14 7.6736e+07    6  158          - 7.6723e+07      -   566  693s
    16    17 7.6736e+07    8  128          - 7.6723e+07      -   467  707s
    22    23 7.6802e+07   13   76          - 7.6723e+07      -   350  726s
    28    29 7.6803e+07   18   60          - 7.6723e+07      -   290  749s
    35    37 7.6804e+07   22   48          - 7.6723e+07      -   234  765s
    45    45 7.6804e+07   30   40          - 7.6723e+07      -   188  795s
    56    57 7.6804e+07   38   40          - 7.6723e+07      -   155  818s
    67    68 7.6730e+07   13  195          - 7.6723e+07      -   134  859s
    68    69 7.6804e+07   49   70          - 7.6723e+07      -   142  879s
    80    81 7.6731e+07   14  236          - 7.6723e+07      -   133  920s
    81    82 7.6804e+07   60   90          - 7.6723e+07      -   135  949s
    95    96 7.6731e+07   15  284          - 7.6723e+07      -   121  990s
    96    97 7.6804e+07   72   90          - 7.6723e+07      -   120 1029s
   112   113 7.6805e+07   85   90          - 7.6723e+07      -   113 1419s
   130   132 7.6805e+07  101   90          - 7.6723e+07      -   102 1486s
   149   150 7.6732e+07   18  608          - 7.6723e+07      -  93.3 1528s
   150   150 7.6805e+07  118   90          - 7.6723e+07      -  93.6 1550s
   171   172 7.6732e+07   19  386          - 7.6723e+07      -  84.1 1590s
   173   174 7.6805e+07  136  100          - 7.6723e+07      -  84.5 1637s
   196   197 7.6732e+07   21  272          - 7.6723e+07      -  75.6 1678s
   197   198 7.6805e+07  159   96          - 7.6723e+07      -  75.9 1715s
   222   223 7.6732e+07   22  272          - 7.6723e+07      -  70.0 1761s
   223   224 7.6806e+07  184  158          - 7.6723e+07      -  71.2 1976s
   238   239 7.6732e+07   23 1514          - 7.6723e+07      -  76.0 2017s
   239   240 7.6806e+07  199  240          - 7.6723e+07      -  75.8 2052s
   268   269 7.6732e+07   24  393          - 7.6723e+07      -  78.2 2107s
